(declare-const delta_i Int)
(declare-const delta_j2 Int)
(assert (exists
         ((|j2'?1?1| Int) (|S1,0?2_integralized?2| Int) (|i'?3?3| Int)
            (KSUM1?4?4 Int) (|K1,0?5?5| Int) (K?6?6 Int) (|i'?7?7| Int)
            (j2?8?8 Int) (n?9?9 Int) (i?10?10 Int) (m?11?11 Int))
         (and (< (- j2?8?8) 0) (<= (- i?10?10) 0) (< (- m?11?11) 0)
                (< (+ (- m?11?11) j2?8?8) 0) (<= (- K?6?6) 0)
                (<= (- |K1,0?5?5|) 0) (= (+ |K1,0?5?5| (- K?6?6)) 0)
                (<= (+ KSUM1?4?4 (- K?6?6)) 0)
                (= (+ (- |S1,0?2_integralized?2|) |i'?3?3| (- |K1,0?5?5|)) 0)
                (= (+ (- KSUM1?4?4) |K1,0?5?5|) 0)
                (= |S1,0?2_integralized?2| 0)
                (or (and (= K?6?6 0) (= (- |i'?3?3|) 0))
                      (and (<= (+ (- K?6?6) 1) 0) (<= (+ (- n?9?9) 1) 0)
                             (<= (+ (- n?9?9) |i'?3?3|) 0)
                             (<= (+ (- |i'?3?3|) 1) 0)))
                (= (+ |i'?3?3| (- K?6?6)) 0) (<= (- K?6?6) 0)
                (<= (- |i'?3?3|) 0) (<= (+ n?9?9 (- |i'?3?3|)) 0)
                (= (+ |j2'?1?1| (- j2?8?8) -1) 0)
                (= (+ |i'?7?7| (- |i'?3?3|)) 0)
                (= (+ delta_i (- (+ |i'?7?7| (- i?10?10)))) 0)
                (= (+ delta_j2 (- (+ |j2'?1?1| (- j2?8?8)))) 0))))
(check-sat)